11 965
525 7 445 7 264 7 63 9 877 13
525 7 482 7 365 7 115 9 943 13
529 7 485 7 370 11
525 7 484 7 368 7 123 9 857 11 631 18
525 7 505 7 381 7 219 9 28 11 852 15 669 21
530 7 518 7 378 7 176 12
528 7 504 7 413 7 249 12
528 7 504 7 413 7 249 12
520 7 440 7 284 7 88 12
530 7 487 7 372 7 89 12
521 7 473 7 324 11
